24 4
28 21 86 45 34 37 32 98 63 105 49 73 33 50 28 98 57 63 83 57 87 28 80 104
11 38 84 24 42 26 26 90 61 93 59 70 25 26 30 109 78 47 87 63 78 22 71 107
24 20 94 43 49 27 22 78 50 105 56 60 41 34 34 101 58 68 92 76 87 32 60 96
8 32 77 53 35 40 29 92 57 86 49 82 46 41 46 95 80 64 78 51 73 33 81 108
